Route #1: 82 94 64 105 69 17 2 83 77 54
Route #2: 57 63 31 40 13 85 21 74
Route #3: 5 44 76 60 51 100 45 96
Route #4: 29 72 34 11 99 49 71
Route #5: 53 103 101 28 93 97 43 87
Route #6: 14 58 88 91 36 8 48 67
Route #7: 7 75 84 9 12 104 1
Route #8: 52 92 102 24 90 26 62
Route #9: 78 19 27 37 79 46 66 15
Route #10: 22 33
Route #11: 56 20 16 10 41 18 86
Route #12: 35 73 32 3 23 42 30 89 59
Route #13: 55 98 4 70 6 81 50 39
Route #14: 25 47 61 80 65 38 95 68
Cost 26364
